c The Unicorn puzzle
c
c  1 mythical?
c  2 immortal?
c  3 mammal?
c  4 horned?
c  5 magical?
c
c If the unicorn is mythical, then it is immortal.
c 1 -> 2 = -1 v 2
c If the unicorn is not mythical, then it is a mortal mammal.
c -1 -> 3 /\ -2 = 1 v (3 /\ 2) = (1 v 3) /\ (1 v -2)
c If the unicorn is either immortal or a mammal, then it is horned.
c 2 v 3 -> 4 = (-2 /\ -3) v 4 = (-2 v 4) /\ (-3 v 4)
c The unicorn is magical if it is horned.
c 4 -> 5 = -4 v 5

p cnf 5 6
-1 2 0
1 3 0
1 -2 0
-2 4 0
-3 4 0
-4 5 0
c ---
c Negar os Modelos dados para obter o proximo Modelo
c Repetir até dar UNSAT
c 1 2 -3 -4 -5 0
c -1 -2 3 -4 -5 0
c -1 -2 -3 -4 -5 0

c Is the unicorn magical? SIM (deu UNSAT)
c -5 0
c is the unicorn horned? SIM (deu UNSAT)
c -4 0
c is the unicorn mythical? NÃO (deu SAT)
c -1 0

c ---

c Será que nunca é mítico? Pode ser mítico (deu SAT)
c 1 0
c Será que é possível a um unicórnio ser simultaneamente mítico e imortal? SIM (deu SAT)
c 1 0
c 2 0
c Poderá existir um unicórnio mortal que não seja mamífero? NÃO (deu UNSAT)
c -2 0
c -3 0 